#NumParts= 5;
#NumMachines= 2;

set PARTS := 1 2 3 4 5;
set MACHINES := 1 2;

param Time: 
     1 2 :=
   1 2 3
   2 1 2
   3 3 2
   4 3 1
   5 1 1
   ;

param: profit :=
   1 30
   2 20
   3 40
   4 25
   5 10;

param: capacity :=
   1 700
   2 1000;

